experiments/sat_smt/run/sat-l/results/rebecca.res
solved=true
solvingTime=73.8217620849609375
nActions=24