experiments/sat_smt/run/sat-l/results/rebecca.out
Timesteps: 1
s UNSATISFIABLE
real 0.06
user 0.00
sys 0.00
Timesteps: 2
s UNSATISFIABLE
real 0.06
user 0.01
sys 0.00
Timesteps: 3
s UNSATISFIABLE
real 0.08
user 0.02
sys 0.00
Timesteps: 4
s UNSATISFIABLE
real 0.09
user 0.04
sys 0.00
Timesteps: 5
s UNSATISFIABLE
real 0.11
user 0.04
sys 0.00
Timesteps: 6
s UNSATISFIABLE
real 0.14
user 0.10
sys 0.00
Timesteps: 7
s UNSATISFIABLE
real 0.20
user 0.15
sys 0.00
Timesteps: 8
s UNSATISFIABLE
real 0.36
user 0.30
sys 0.00
Timesteps: 9
s UNSATISFIABLE
real 0.47
user 0.39
sys 0.00
Timesteps: 10
s UNSATISFIABLE
real 1.04
user 0.97
sys 0.00
Timesteps: 11
s UNSATISFIABLE
real 1.44
user 1.35
sys 0.00
Timesteps: 12
s UNSATISFIABLE
real 2.49
user 2.39
sys 0.01
Timesteps: 13
s UNSATISFIABLE
real 3.18
user 3.06
sys 0.00
Timesteps: 14
s UNSATISFIABLE
real 3.91
user 3.77
sys 0.02
Timesteps: 15
s UNSATISFIABLE
real 3.95
user 3.82
sys 0.01
Timesteps: 16
s UNSATISFIABLE
real 4.93
user 4.78
sys 0.01
Timesteps: 17
s UNSATISFIABLE
real 4.80
user 4.64
sys 0.02
Timesteps: 18
s UNSATISFIABLE
real 5.86
user 5.69
sys 0.02
Timesteps: 19
s UNSATISFIABLE
real 6.23
user 6.01
sys 0.02
Timesteps: 20
s UNSATISFIABLE
real 6.34
user 6.16
sys 0.02
Timesteps: 21
s UNSATISFIABLE
real 6.24
user 6.05
sys 0.02
Timesteps: 22
s UNSATISFIABLE
real 7.20
user 7.00
sys 0.03
Timesteps: 23
s UNSATISFIABLE
real 7.85
user 7.65
sys 0.02
Timesteps: 24
s SATISFIABLE
real 7.05
user 6.82
sys 0.03
